c Generated map
c Size: 8 * 8, weights in range: 1 to 10, walls: True, with ratio 0.05
c dim 2 of 9
c
p sp 64 102
c graph contains 64 nodes and 102 arcs
c
a 1 9 7
a 9 1 7
a 1 2 10
a 2 1 10
a 2 10 7
a 10 2 7
a 2 3 10
a 3 2 10
a 3 11 7
a 11 3 7
a 3 4 7
a 4 3 7
a 4 12 2
a 12 4 2
a 4 5 4
a 5 4 4
a 5 13 9
a 13 5 9
a 5 6 5
a 6 5 5
a 6 14 6
a 14 6 6
a 6 7 1
a 7 6 1
a 7 15 3
a 15 7 3
a 7 8 1
a 8 7 1
a 8 16 7
a 16 8 7
a 9 17 5
a 17 9 5
a 9 10 9
a 10 9 9
a 10 11 8
a 11 10 8
a 11 19 1
a 19 11 1
a 11 12 6
a 12 11 6
a 12 20 10
a 20 12 10
a 12 13 10
a 13 12 10
a 13 21 5
a 21 13 5
a 13 14 1
a 14 13 1
a 14 22 3
a 22 14 3
a 14 15 7
a 15 14 7
a 15 23 6
a 23 15 6
a 15 16 4
a 16 15 4
a 17 25 6
a 25 17 6
a 19 27 10
a 27 19 10
a 19 20 2
a 20 19 2
a 20 28 6
a 28 20 6
a 20 21 2
a 21 20 2
a 21 29 6
a 29 21 6
a 21 22 9
a 22 21 9
a 22 30 3
a 30 22 3
a 22 23 3
a 23 22 3
a 23 31 10
a 31 23 10
a 25 33 8
a 33 25 8
a 25 26 1
a 26 25 1
a 26 34 5
a 34 26 5
a 26 27 7
a 27 26 7
a 27 35 6
a 35 27 6
a 27 28 2
a 28 27 2
a 28 36 7
a 36 28 7
a 28 29 2
a 29 28 2
a 29 37 1
a 37 29 1
a 29 30 10
a 30 29 10
a 30 38 4
a 38 30 4
a 30 31 4
a 31 30 4
a 31 39 3
a 39 31 3
a 31 32 4
a 32 31 4
a 32 40 4
a 40 32 4
a 33 41 2
a 41 33 2
a 33 34 9
a 34 33 9
a 34 42 10
a 42 34 10
a 34 35 5
a 35 34 5
a 35 43 3
a 43 35 3
a 35 36 3
a 36 35 3
a 36 44 2
a 44 36 2
a 36 37 3
a 37 36 3
a 37 45 9
a 45 37 9
a 37 38 8
a 38 37 8
a 38 46 5
a 46 38 5
a 38 39 6
a 39 38 6
a 39 47 5
a 47 39 5
a 39 40 6
a 40 39 6
a 40 48 3
a 48 40 3
a 41 49 9
a 49 41 9
a 41 42 5
a 42 41 5
a 42 50 5
a 50 42 5
a 42 43 2
a 43 42 2
a 43 51 3
a 51 43 3
a 43 44 9
a 44 43 9
a 44 52 7
a 52 44 7
a 44 45 5
a 45 44 5
a 45 53 9
a 53 45 9
a 45 46 9
a 46 45 9
a 46 54 5
a 54 46 5
a 46 47 4
a 47 46 4
a 47 55 1
a 55 47 1
a 47 48 5
a 48 47 5
a 48 56 2
a 56 48 2
a 49 57 9
a 57 49 9
a 49 50 9
a 50 49 9
a 50 58 1
a 58 50 1
a 50 51 3
a 51 50 3
a 51 59 4
a 59 51 4
a 51 52 6
a 52 51 6
a 52 60 3
a 60 52 3
a 52 53 4
a 53 52 4
a 53 61 8
a 61 53 8
a 53 54 9
a 54 53 9
a 54 55 8
a 55 54 8
a 55 63 9
a 63 55 9
a 55 56 5
a 56 55 5
a 56 64 1
a 64 56 1
a 57 58 2
a 58 57 2
a 58 59 10
a 59 58 10
a 59 60 9
a 60 59 9
a 60 61 5
a 61 60 5
a 63 64 8
a 64 63 8
